n_res = 4;
rc = [ 0, 0, 0, 0 ];
n_tasks = 30;
d = [ 9, 9, 2, 1, 2, 10, 5, 9, 4, 1, 4, 6, 8, 7, 3, 10, 1, 5, 6, 5, 1, 4, 3, 8, 2, 10, 3, 4, 9, 4 ];
rr = [| 0, 0, 0, 0, 0, 0, 0, 0, 0, 0, 0, 0, 0, 0, 0, 0, 0, 0, 0, 0, 0, 0, 0, 0, 0, 0, 0, 0, 0, 0
      | 0, 0, 0, 0, 0, 0, 0, 0, 0, 0, 0, 0, 0, 0, 0, 0, 0, 0, 0, 0, 0, 0, 0, 0, 0, 0, 0, 0, 0, 0
      | 0, 0, 0, 0, 0, 0, 0, 0, 0, 0, 0, 0, 0, 0, 0, 0, 0, 0, 0, 0, 0, 0, 0, 0, 0, 0, 0, 0, 0, 0
      | 0, 0, 0, 0, 0, 0, 0, 0, 0, 0, 0, 0, 0, 0, 0, 0, 0, 0, 0, 0, 0, 0, 0, 0, 0, 0, 0, 0, 0, 0 |];
suc = [ { 15, 29 },
       { 4, 5, 7 },
       { 6, 17, 24 },
       { 11 },
       { 14, 25 },
       { 8, 10 },
       { 9 },
       { 23 },
       { 12 },
       { 16, 20 },
       { 13 },
       { 13, 15 },
       { 18 },
       { 19, 22, 27 },
       { 16 },
       { 18 },
       { 25, 28 },
       { 26 },
       { 23, 24 },
       { 21 },
       { 22 },
       { 26 },
       { 29, 30 },
       { 26 },
       { 29, 30 },
       { 30 },
       { 28 },
       {  },
       {  },
       {  } ];
